p cnf 10 30
5 4 -2 0
8 -4 -5 0
5 9 -2 0
-4 8 3 0
3 7 6 0
-6 -7 8 0
-6 7 8 0
-10 -4 -8 0
-7 -2 4 0
1 -2 -5 0
1 -3 8 0
-10 6 -8 0
-9 1 4 0
2 9 8 0
-7 -2 -1 0
-7 4 -2 0
-6 -9 3 0
-3 -8 10 0
-3 1 5 0
4 2 -9 0
2 -8 4 0
9 -1 -10 0
2 -8 -4 0
6 5 -2 0
6 -3 -9 0
7 1 -4 0
9 2 -10 0
5 8 10 0
7 -8 9 0
-10 -5 -7 0
